SECTION Graph
Nodes 388
Edges 815
E 1 339 7
E 1 340 2
E 2 3 14
E 2 341 2
E 3 4 1
E 3 342 2
E 4 343 2
E 5 6 1
E 6 7 14
E 7 8 1
E 8 201 7
E 9 10 1
E 9 327 7
E 9 328 2
E 9 340 21
E 10 11 14
E 10 329 2
E 10 341 21
E 11 12 1
E 11 336 2
E 11 342 21
E 12 337 2
E 12 343 21
E 13 14 1
E 13 307 7
E 13 309 2
E 13 318 7
E 14 15 14
E 14 312 2
E 14 319 7
E 15 16 1
E 15 322 2
E 15 330 7
E 16 325 2
E 16 332 7
E 17 18 1
E 17 291 7
E 17 292 2
E 17 309 21
E 18 19 14
E 18 294 2
E 18 312 21
E 19 20 1
E 19 303 2
E 19 322 21
E 20 305 2
E 20 325 21
E 21 22 1
E 21 275 7
E 21 276 2
E 21 292 21
E 22 23 14
E 22 278 2
E 22 294 21
E 23 24 1
E 23 287 2
E 23 303 21
E 24 289 2
E 24 305 21
E 25 26 1
E 25 257 7
E 25 258 2
E 25 276 21
E 26 27 14
E 26 260 2
E 26 278 21
E 27 28 1
E 27 271 2
E 27 287 21
E 28 273 2
E 28 289 21
E 29 30 1
E 29 239 7
E 29 258 21
E 30 31 14
E 30 260 21
E 31 32 1
E 31 271 21
E 32 273 21
E 33 34 1
E 33 68 7
E 33 331 21
E 34 35 14
E 34 333 21
E 35 36 1
E 35 338 21
E 36 339 21
E 37 38 1
E 37 72 7
E 37 313 21
E 37 331 2
E 38 39 14
E 38 315 21
E 38 333 2
E 39 40 1
E 39 326 21
E 39 338 2
E 40 327 21
E 40 339 2
E 40 340 7
E 41 42 1
E 41 76 7
E 41 302 8
E 41 313 2
E 42 43 14
E 42 304 8
E 42 315 2
E 43 44 1
E 43 316 8
E 43 326 2
E 44 317 8
E 44 327 2
E 44 328 7
E 45 46 1
E 45 80 7
E 45 280 21
E 45 296 2
E 46 47 14
E 46 281 21
E 46 297 2
E 47 48 1
E 47 290 21
E 47 306 2
E 48 291 21
E 48 307 2
E 48 309 7
E 49 50 1
E 49 84 7
E 49 262 21
E 49 280 2
E 50 51 14
E 50 263 21
E 50 281 2
E 51 52 1
E 51 274 21
E 51 290 2
E 52 275 21
E 52 291 2
E 52 292 7
E 53 54 1
E 53 88 7
E 53 243 21
E 53 262 2
E 54 55 14
E 54 245 21
E 54 263 2
E 55 56 1
E 55 255 21
E 55 274 2
E 56 257 21
E 56 275 2
E 56 276 7
E 57 58 1
E 57 92 7
E 57 224 21
E 57 243 2
E 58 59 14
E 58 226 21
E 58 245 2
E 59 60 1
E 59 237 21
E 59 255 2
E 60 239 21
E 60 257 2
E 60 258 7
E 61 62 1
E 61 96 7
E 61 224 2
E 62 63 14
E 62 226 2
E 63 64 1
E 63 237 2
E 64 239 2
E 65 66 1
E 65 69 23
E 65 323 7
E 66 67 14
E 66 70 23
E 67 68 1
E 67 71 23
E 68 72 23
E 69 70 1
E 69 73 23
E 69 100 7
E 70 71 14
E 70 74 23
E 71 72 1
E 71 75 23
E 72 76 23
E 73 74 1
E 73 104 7
E 73 286 8
E 74 75 14
E 74 288 8
E 75 76 1
E 75 298 8
E 76 299 8
E 77 78 1
E 77 81 23
E 77 108 7
E 77 284 9
E 78 79 14
E 78 82 23
E 78 285 9
E 79 80 1
E 79 83 23
E 79 293 9
E 80 84 23
E 80 295 9
E 81 82 1
E 81 112 7
E 81 242 21
E 82 83 14
E 82 244 21
E 83 84 1
E 83 254 21
E 84 256 21
E 85 86 1
E 85 89 23
E 85 116 7
E 85 242 2
E 86 87 14
E 86 90 23
E 86 244 2
E 87 88 1
E 87 91 23
E 87 254 2
E 88 92 23
E 88 256 2
E 89 90 1
E 89 120 7
E 89 204 21
E 90 91 14
E 90 206 21
E 91 92 1
E 91 216 21
E 92 218 21
E 93 94 1
E 93 124 7
E 93 204 2
E 94 95 14
E 94 206 2
E 95 96 1
E 95 216 2
E 96 218 2
E 97 98 1
E 97 101 23
E 97 132 7
E 97 308 23
E 98 99 14
E 98 102 23
E 98 310 23
E 99 100 1
E 99 103 23
E 99 320 23
E 100 104 23
E 100 323 23
E 101 102 1
E 101 136 7
E 101 270 8
E 102 103 14
E 102 272 8
E 103 104 1
E 103 282 8
E 104 283 8
E 105 106 1
E 105 109 23
E 105 140 7
E 105 268 9
E 106 107 14
E 106 110 23
E 106 269 9
E 107 108 1
E 107 111 23
E 107 277 9
E 108 112 23
E 108 279 9
E 109 110 1
E 109 144 7
E 109 223 21
E 110 111 14
E 110 225 21
E 111 112 1
E 111 236 21
E 112 238 21
E 113 114 1
E 113 117 23
E 113 148 7
E 113 223 2
E 114 115 14
E 114 118 23
E 114 225 2
E 115 116 1
E 115 119 23
E 115 236 2
E 116 120 23
E 116 238 2
E 117 118 1
E 117 152 7
E 117 193 21
E 118 119 14
E 118 194 21
E 119 120 1
E 119 199 21
E 120 200 21
E 121 122 1
E 121 156 7
E 121 193 2
E 122 123 14
E 122 194 2
E 123 124 1
E 123 199 2
E 124 200 2
E 125 126 1
E 125 129 23
E 125 160 7
E 126 127 14
E 126 130 23
E 127 128 1
E 127 131 23
E 128 132 23
E 128 308 7
E 129 130 1
E 129 133 23
E 129 164 7
E 130 131 14
E 130 134 23
E 131 132 1
E 131 135 23
E 132 136 23
E 133 134 1
E 133 168 7
E 133 252 8
E 134 135 14
E 134 253 8
E 135 136 1
E 135 265 8
E 136 266 8
E 137 138 1
E 137 141 23
E 137 235 7
E 137 250 9
E 138 139 14
E 138 142 23
E 138 251 9
E 139 140 1
E 139 143 23
E 139 259 9
E 140 144 23
E 140 261 9
E 141 142 1
E 141 214 7
E 141 219 2
E 142 143 14
E 142 220 2
E 143 144 1
E 143 231 2
E 144 232 2
E 145 146 1
E 145 149 23
E 145 198 7
E 145 203 2
E 146 147 14
E 146 150 23
E 146 205 2
E 147 148 1
E 147 151 23
E 147 215 2
E 148 152 23
E 148 217 2
E 149 150 1
E 149 189 4
E 150 151 14
E 150 190 4
E 151 152 1
E 151 195 4
E 152 196 4
E 153 154 1
E 153 184 7
E 153 185 2
E 154 155 14
E 154 186 2
E 155 156 1
E 155 187 2
E 156 188 2
E 157 158 1
E 157 161 23
E 158 159 14
E 158 162 23
E 159 160 1
E 159 163 23
E 160 164 23
E 161 162 1
E 161 165 23
E 162 166 23
E 162 264 6
E 163 164 1
E 163 167 23
E 163 267 6
E 164 168 23
E 165 166 1
E 165 233 8
E 166 230 14
E 166 246 6
E 167 168 1
E 167 247 8
E 167 249 6
E 168 248 8
E 169 170 1
E 169 181 19
E 169 191 27
E 170 171 14
E 170 182 19
E 170 192 27
E 171 172 1
E 171 183 19
E 171 197 27
E 172 184 19
E 172 189 7
E 172 198 27
E 173 174 1
E 173 181 4
E 174 175 14
E 174 182 4
E 175 176 1
E 175 183 4
E 176 184 4
E 177 178 6
E 177 179 2
E 177 227 9
E 177 230 6
E 178 180 2
E 178 233 7
E 178 246 8
E 179 180 6
E 179 229 9
E 179 240 6
E 180 247 6
E 180 249 8
E 181 182 1
E 182 183 14
E 183 184 1
E 185 186 1
E 185 189 17
E 186 187 14
E 186 190 17
E 187 188 1
E 187 195 17
E 188 193 7
E 188 196 17
E 189 190 1
E 190 195 14
E 191 192 1
E 191 201 21
E 192 197 14
E 192 202 21
E 193 194 1
E 194 199 14
E 195 196 1
E 197 198 1
E 197 211 21
E 198 212 21
E 199 200 1
E 200 204 7
E 201 202 1
E 201 221 25
E 202 207 6
E 202 222 25
E 203 205 1
E 203 219 19
E 204 206 1
E 205 215 14
E 205 220 19
E 206 216 14
E 207 208 2
E 207 209 2
E 208 210 2
E 208 227 23
E 209 210 2
E 209 211 6
E 210 213 6
E 210 229 23
E 211 212 1
E 211 213 2
E 212 214 2
E 212 219 7
E 213 214 1
E 213 234 23
E 214 235 23
E 215 217 1
E 215 231 19
E 216 218 1
E 217 223 7
E 217 232 19
E 218 224 7
E 219 220 1
E 220 231 14
E 221 222 1
E 221 228 9
E 222 227 6
E 222 230 9
E 223 225 1
E 224 226 1
E 225 236 14
E 226 237 14
E 227 229 2
E 228 230 1
E 228 233 6
E 229 234 6
E 231 232 1
E 234 235 1
E 234 240 9
E 235 241 9
E 236 238 1
E 237 239 1
E 238 242 7
E 240 241 1
E 240 247 6
E 241 248 6
E 241 250 7
E 242 244 1
E 243 245 1
E 244 254 14
E 245 255 14
E 246 249 2
E 246 264 23
E 247 248 1
E 248 252 7
E 249 267 23
E 250 251 1
E 250 252 6
E 251 253 6
E 251 259 14
E 252 253 1
E 253 265 14
E 254 256 1
E 255 257 1
E 256 262 7
E 258 260 1
E 259 261 1
E 259 265 6
E 260 271 14
E 261 266 6
E 261 268 7
E 262 263 1
E 263 274 14
E 264 267 2
E 265 266 1
E 266 270 7
E 268 269 1
E 268 270 6
E 269 272 6
E 269 277 14
E 270 272 1
E 271 273 1
E 272 282 14
E 274 275 1
E 276 278 1
E 277 279 1
E 277 282 6
E 278 287 14
E 279 283 6
E 279 284 7
E 280 281 1
E 281 290 14
E 282 283 1
E 283 286 7
E 284 285 1
E 284 286 6
E 285 288 6
E 285 293 14
E 286 288 1
E 287 289 1
E 288 298 14
E 290 291 1
E 292 294 1
E 293 295 1
E 293 298 6
E 294 303 14
E 295 299 6
E 295 300 7
E 296 297 1
E 296 300 7
E 297 301 7
E 297 306 14
E 298 299 1
E 299 302 7
E 300 301 1
E 300 302 6
E 301 304 6
E 301 311 14
E 302 304 1
E 303 305 1
E 304 316 14
E 306 307 1
E 306 311 7
E 307 314 7
E 308 310 1
E 309 312 1
E 310 320 14
E 311 314 1
E 311 316 6
E 312 322 14
E 313 315 1
E 314 317 6
E 314 318 7
E 315 326 14
E 316 317 1
E 317 321 7
E 318 319 1
E 318 321 6
E 319 324 6
E 319 330 14
E 320 323 1
E 321 324 1
E 321 328 8
E 322 325 1
E 324 329 8
E 324 334 14
E 326 327 1
E 328 329 1
E 329 336 14
E 330 332 1
E 330 334 6
E 331 333 1
E 332 335 6
E 333 338 14
E 334 335 1
E 334 336 8
E 335 337 8
E 336 337 1
E 338 339 1
E 340 341 1
E 341 342 14
E 342 343 1
E 1 344 100000
E 2 344 100000
E 3 344 100000
E 4 344 100000
E 5 345 100000
E 6 345 100000
E 7 345 100000
E 8 345 100000
E 9 346 100000
E 10 346 100000
E 11 346 100000
E 12 346 100000
E 13 347 100000
E 14 347 100000
E 15 347 100000
E 16 347 100000
E 17 348 100000
E 18 348 100000
E 19 348 100000
E 20 348 100000
E 21 349 100000
E 22 349 100000
E 23 349 100000
E 24 349 100000
E 25 350 100000
E 26 350 100000
E 27 350 100000
E 28 350 100000
E 29 351 100000
E 30 351 100000
E 31 351 100000
E 32 351 100000
E 33 352 100000
E 34 352 100000
E 35 352 100000
E 36 352 100000
E 37 353 100000
E 38 353 100000
E 39 353 100000
E 40 353 100000
E 41 354 100000
E 42 354 100000
E 43 354 100000
E 44 354 100000
E 45 355 100000
E 46 355 100000
E 47 355 100000
E 48 355 100000
E 49 356 100000
E 50 356 100000
E 51 356 100000
E 52 356 100000
E 53 357 100000
E 54 357 100000
E 55 357 100000
E 56 357 100000
E 57 358 100000
E 58 358 100000
E 59 358 100000
E 60 358 100000
E 61 359 100000
E 62 359 100000
E 63 359 100000
E 64 359 100000
E 65 360 100000
E 66 360 100000
E 67 360 100000
E 68 360 100000
E 69 361 100000
E 70 361 100000
E 71 361 100000
E 72 361 100000
E 73 362 100000
E 74 362 100000
E 75 362 100000
E 76 362 100000
E 77 363 100000
E 78 363 100000
E 79 363 100000
E 80 363 100000
E 81 364 100000
E 82 364 100000
E 83 364 100000
E 84 364 100000
E 85 365 100000
E 86 365 100000
E 87 365 100000
E 88 365 100000
E 89 366 100000
E 90 366 100000
E 91 366 100000
E 92 366 100000
E 93 367 100000
E 94 367 100000
E 95 367 100000
E 96 367 100000
E 97 368 100000
E 98 368 100000
E 99 368 100000
E 100 368 100000
E 101 369 100000
E 102 369 100000
E 103 369 100000
E 104 369 100000
E 105 370 100000
E 106 370 100000
E 107 370 100000
E 108 370 100000
E 109 371 100000
E 110 371 100000
E 111 371 100000
E 112 371 100000
E 113 372 100000
E 114 372 100000
E 115 372 100000
E 116 372 100000
E 117 373 100000
E 118 373 100000
E 119 373 100000
E 120 373 100000
E 121 374 100000
E 122 374 100000
E 123 374 100000
E 124 374 100000
E 125 375 100000
E 126 375 100000
E 127 375 100000
E 128 375 100000
E 129 376 100000
E 130 376 100000
E 131 376 100000
E 132 376 100000
E 133 377 100000
E 134 377 100000
E 135 377 100000
E 136 377 100000
E 137 378 100000
E 138 378 100000
E 139 378 100000
E 140 378 100000
E 141 379 100000
E 142 379 100000
E 143 379 100000
E 144 379 100000
E 145 380 100000
E 146 380 100000
E 147 380 100000
E 148 380 100000
E 149 381 100000
E 150 381 100000
E 151 381 100000
E 152 381 100000
E 153 382 100000
E 154 382 100000
E 155 382 100000
E 156 382 100000
E 157 383 100000
E 158 383 100000
E 159 383 100000
E 160 383 100000
E 161 384 100000
E 162 384 100000
E 163 384 100000
E 164 384 100000
E 165 385 100000
E 166 385 100000
E 167 385 100000
E 168 385 100000
E 169 386 100000
E 170 386 100000
E 171 386 100000
E 172 386 100000
E 173 387 100000
E 174 387 100000
E 175 387 100000
E 176 387 100000
E 177 388 100000
E 178 388 100000
E 179 388 100000
E 180 388 100000
END

SECTION Terminals
Terminals 45
T 344
T 345
T 346
T 347
T 348
T 349
T 350
T 351
T 352
T 353
T 354
T 355
T 356
T 357
T 358
T 359
T 360
T 361
T 362
T 363
T 364
T 365
T 366
T 367
T 368
T 369
T 370
T 371
T 372
T 373
T 374
T 375
T 376
T 377
T 378
T 379
T 380
T 381
T 382
T 383
T 384
T 385
T 386
T 387
T 388
END

SECTION Tree Decomposition
c We do not guarantee that this tree decomposition has minimum width.
s td 313 19 388
b 1 5 6 345
b 2 6 7 345
b 3 7 345 8
b 4 8 201
b 5 32 31 351 273
b 6 36 352 35 339
b 7 157 383 158 161
b 8 173 387 174 181
b 9 176 387 175 184
b 10 4 3 343 344
b 11 64 359 63 239
b 12 2 3 341 344
b 13 388 179 180 178 177
b 14 3 342 343 341 344
b 15 1 344 340 339
b 16 185 186 189 153
b 17 191 169 192 201
b 18 196 195 152 188
b 19 203 219 205 145
b 20 207 208 209 202
b 21 221 201 222 228
b 22 232 144 231 217
b 23 233 165 178 228
b 24 243 57 245 53
b 25 264 267 246 162
b 26 280 281 45 49
b 27 289 28 24 287
b 28 296 300 297 45
b 29 305 303 24 20
b 30 308 310 97 128
b 31 313 315 41 37
b 32 320 323 99 310
b 33 325 16 20 322
b 34 331 333 33 37
b 35 332 16 330 335
b 36 337 12 336 335
b 37 352 34 35 33 339
b 38 34 35 333 33 339
b 39 35 338 333 33 339
b 40 349 23 22 24 21
b 41 348 19 17 18 20
b 42 387 174 175 181 184
b 43 174 175 182 181 184
b 44 175 182 181 183 184
b 45 342 343 341 344 11
b 46 343 341 344 11 12
b 47 347 15 16 14 13
b 48 350 27 26 28 25
b 49 354 42 43 44 41
b 50 358 58 57 59 60
b 51 359 63 62 61 239
b 52 63 62 237 61 239
b 53 62 237 226 61 239
b 54 370 106 107 108 105
b 55 375 126 127 125 128
b 56 376 130 132 131 129
b 57 378 138 137 139 140
b 58 382 154 155 156 153
b 59 154 155 186 156 153
b 60 155 186 187 156 153
b 61 31 351 30 273 271
b 62 351 30 273 271 29
b 63 30 273 271 260 29
b 64 126 127 130 125 128
b 65 127 130 131 125 128
b 66 383 158 159 161 160
b 67 158 159 161 160 162
b 68 386 170 169 171 172
b 69 346 11 10 12 9
b 70 159 161 160 162 163
b 71 374 122 123 124 121
b 72 380 146 147 148 145
b 73 122 123 194 124 121
b 74 123 194 124 199 121
b 75 381 151 149 150 152
b 76 372 114 116 115 113
b 77 182 181 183 170 184
b 78 181 183 170 169 184
b 79 183 170 169 171 184
b 80 373 119 118 120 117
b 81 368 98 99 100 97
b 82 371 110 112 111 109
b 83 369 103 102 101 104
b 84 366 91 89 90 92
b 85 367 94 95 93 96
b 86 237 226 61 59 239
b 87 94 95 206 93 96
b 88 95 206 93 96 216
b 89 362 75 73 74 76
b 90 379 143 144 141 142
b 91 363 78 80 79 77
b 92 364 83 84 82 81
b 93 365 86 87 88 85
b 94 273 271 260 29 28
b 95 271 260 29 27 28
b 96 377 135 134 133 136
b 97 360 66 67 68 65
b 98 361 70 72 71 69
b 99 66 67 70 68 65
b 100 67 70 71 68 65
b 101 356 50 51 52 49
b 102 357 54 55 56 53
b 103 353 38 39 40 37
b 104 355 46 47 48 45
b 105 338 333 33 39 339
b 106 170 169 171 192 184 172
b 107 333 33 38 39 339 37
b 108 169 171 192 184 201 172
b 109 171 192 184 201 197 172
b 110 192 184 201 202 197 172
b 111 384 161 164 162 163
b 112 385 165 167 168 166
b 113 208 209 210 227 202
b 114 209 210 227 211 202
b 115 267 246 249 162 163
b 116 323 99 310 100 65
b 117 33 38 39 339 37 68
b 118 161 160 164 162 163 165
b 119 184 201 202 197 153 172
b 120 160 164 162 163 165 125
b 121 260 29 27 26 28 258
b 122 29 27 26 28 258 239
b 123 341 344 340 11 10 12
b 124 344 340 11 10 12 339
b 125 98 99 310 100 102 97
b 126 186 187 156 190 189 153
b 127 46 281 47 48 297 45
b 128 23 22 303 24 287 21
b 129 210 227 211 202 213 229
b 130 226 61 58 224 59 239
b 131 61 58 224 59 239 96
b 132 15 16 330 14 13 322
b 133 19 303 17 18 20 322
b 134 27 26 28 258 287 25 239
b 135 26 28 258 287 278 25 239
b 136 28 258 24 287 278 25 239
b 137 258 24 287 278 25 60 239
b 138 340 11 10 12 9 339 40
b 139 11 10 12 336 9 339 40
b 140 10 12 336 9 329 339 40
b 141 12 336 9 329 339 40 335
b 142 336 9 329 339 40 334 335
b 143 38 39 339 40 315 37 68
b 144 39 339 40 326 315 37 68
b 145 244 242 86 82 254
b 146 272 102 282 269 270
b 147 253 134 265 251 252
b 148 241 250 235 240 248
b 149 262 256 49 53 263
b 150 255 257 59 245 55
b 151 316 43 317 304 311
b 152 234 235 213 229 240
b 153 236 115 111 238 225
b 154 328 9 329 44 321
b 155 324 329 321 334 319
b 156 299 302 295 76 298
b 157 283 286 279 104 282
b 158 318 321 319 13 314
b 159 276 278 21 25 56
b 160 277 107 279 282 269
b 161 312 309 14 18 322
b 162 193 194 117 121 188
b 163 261 268 266 259 140
b 164 200 204 120 124 199
b 165 198 197 145 172 212
b 166 307 306 13 48 314
b 167 215 147 205 231 217
b 168 214 235 213 141 212
b 169 220 219 205 231 142
b 170 218 224 92 96 216
b 171 223 217 109 113 225
b 172 301 300 297 304 311
b 173 230 222 228 166 177
b 174 275 274 21 56 52
b 175 247 167 180 240 248
b 176 294 292 22 303 18
b 177 284 286 285 77 279
b 178 288 74 286 285 298
b 179 290 291 281 47 51
b 180 293 79 295 285 298
b 181 327 9 40 326 44
b 182 246 249 162 163 178 166
b 183 249 162 163 167 180 178 166
b 184 146 150 147 148 205 145
b 185 143 144 231 141 142 139
b 186 42 43 44 315 41 304
b 187 151 149 195 150 152 147
b 188 50 281 51 52 49 263
b 189 206 93 204 90 96 216
b 190 93 204 90 96 216 124
b 191 54 245 55 56 53 263
b 192 99 310 100 103 102 65 97
b 193 310 100 103 102 65 97 128
b 194 187 156 190 195 189 153 188
b 195 156 190 195 189 153 121 188
b 196 190 195 189 150 153 121 188
b 197 75 71 73 74 76 298
b 198 106 107 108 110 105 269
b 199 114 116 115 118 113 225
b 200 83 79 84 82 254 81
b 201 119 115 118 120 199 117
b 202 135 131 134 265 133 136
b 203 138 137 142 139 140 251
b 204 91 89 87 90 92 216
b 205 179 180 178 177 229 240
b 206 78 80 79 82 285 77
b 207 70 72 71 74 68 65 69
b 208 130 132 131 134 125 128 129
b 209 149 195 189 150 152 147 145
b 210 16 330 14 335 13 20 322
b 211 164 162 163 165 168 125 129
b 212 292 22 303 21 17 18 52
b 213 201 202 197 222 228 153 172
b 214 330 14 334 319 335 13 20 322
b 215 227 211 202 222 177 213 229
b 216 211 202 197 222 177 213 229 212
b 217 309 14 13 48 17 18 322
b 218 219 205 231 141 142 145 212
b 219 306 47 13 48 314 297 311
b 220 194 118 124 199 117 121 188
b 221 100 103 102 65 69 104 97 128
b 222 132 131 134 97 125 128 129 136
b 223 131 134 265 97 125 128 129 133 136
b 224 72 71 74 37 68 76 65 69
b 225 71 73 74 37 68 76 298 65 69
b 226 103 102 101 65 69 104 282 97 128
b 227 195 189 150 152 147 153 145 121 188
b 228 189 150 152 147 153 145 172 121 188
b 229 300 302 297 304 311 45 295
b 230 257 59 245 25 55 56 60
b 231 268 266 259 105 140 269 270
b 232 250 137 235 240 248 251 252
b 233 291 281 47 48 17 51 52
b 234 58 224 57 59 245 60 239 96
b 235 43 317 326 44 315 41 304 311
b 236 266 259 265 105 136 140 269 270
b 237 224 57 59 245 60 239 92 96 216
b 238 57 59 245 60 239 53 92 96 216
b 239 259 265 105 136 139 140 251 269 270
b 240 150 152 147 148 205 153 145 172 121 188
b 241 152 147 148 205 153 145 172 117 121 188
b 242 242 86 82 254 81 85 238
b 243 274 21 55 56 51 52 263
b 244 256 84 49 53 263 88 254
b 245 107 108 110 279 111 282 105 269
b 246 204 89 90 96 216 120 124 199
b 247 22 303 24 287 278 21 17 18 52
b 248 303 24 287 278 21 17 18 20 52 322
b 249 108 110 112 77 279 111 282 105 269
b 250 9 329 339 40 326 44 321 334 335
b 251 329 339 40 326 44 321 334 319 335
b 252 317 326 44 315 321 314 41 304 311
b 253 110 112 77 279 111 282 109 105 225 269
b 254 73 74 286 37 68 76 298 65 69 104
b 255 74 286 37 68 76 285 298 65 69 104
b 256 202 197 222 228 177 213 229 153 172 212
b 257 197 222 228 177 213 229 153 145 172 212
b 258 222 228 166 177 213 229 153 145 172 212
b 259 14 334 319 335 13 48 17 18 20 322
b 260 80 79 84 45 295 82 285 77
b 261 102 101 65 69 104 282 97 128 269 270
b 262 101 65 69 104 282 97 128 136 269 270
b 263 162 163 165 167 168 180 178 166 125 129
b 264 165 167 168 180 178 228 166 125 129
b 265 167 168 180 178 228 166 240 248 125 129
b 266 168 180 178 228 166 240 248 125 129 133
b 267 180 178 228 166 177 229 240 248 125 129 133
b 268 134 265 97 125 128 129 133 136 251 252
b 269 116 115 118 85 120 238 113 225
b 270 144 231 217 141 142 109 139 140
b 271 59 245 25 55 56 60 239 53 92 96 216
b 272 245 25 55 56 60 239 53 263 92 96 216
b 273 147 148 205 231 217 153 145 172 117 121 188
b 274 148 205 231 217 153 145 172 113 117 121 188
b 275 86 87 90 82 88 254 81 85 238
b 276 302 41 297 304 311 45 295 76 298
b 277 115 118 85 111 120 199 238 113 117 225
b 278 79 84 45 295 82 254 285 298 77 81
b 279 112 77 81 279 111 238 282 109 105 225 269
b 280 89 87 90 92 96 216 85 120 124 199
b 281 339 40 326 44 315 321 334 319 335 37 68
b 282 281 47 48 297 17 51 52 45 49 263
b 283 118 85 111 120 124 199 238 113 117 121 188 225
b 284 47 13 48 314 297 311 17 51 52 45 49 263
b 285 137 235 240 248 141 142 139 140 251 252
b 286 24 287 278 21 25 60 239 17 18 20 52 322
b 287 278 21 25 56 60 239 17 18 20 52 322
b 288 21 25 55 56 60 239 17 18 20 51 52 322 263
b 289 205 231 217 153 141 142 145 172 212 113 117 121 188
b 290 235 213 229 240 248 141 142 212 139 140 251 252
b 291 286 37 68 76 285 298 77 279 65 69 104 282
b 292 326 44 315 321 334 319 335 314 41 304 311 37 68
b 293 321 334 319 335 13 314 41 304 311 37 68
b 294 231 217 153 141 142 145 172 212 109 113 117 121 139 140 188
b 295 217 153 141 142 145 172 212 109 113 117 121 139 140 188 225
b 296 228 166 177 213 229 240 248 153 145 172 212 125 129 133
b 297 213 229 240 248 153 141 142 145 172 212 125 129 133 139 140 251 252
b 298 25 55 56 60 239 17 18 20 51 52 322 53 263 92 96 216
b 299 84 45 49 53 263 295 82 88 254 285 298 77 81
b 300 265 97 105 125 128 129 133 136 139 140 251 252 269 270
b 301 334 319 335 13 48 314 41 304 311 17 18 20 322 37 68
b 302 87 90 82 88 92 96 216 254 81 85 120 124 199 238
b 303 13 48 314 41 297 304 311 17 18 20 51 52 322 45 49 263 37 68
b 304 41 297 304 311 17 18 20 51 52 322 45 49 263 295 37 68 76 298
b 305 17 18 20 51 52 322 45 49 53 263 295 92 96 216 37 68 76 298
b 306 45 49 53 263 295 82 88 92 96 216 254 37 68 76 285 298 77 81
b 307 82 88 92 96 216 254 37 68 76 285 298 77 81 85 120 124 199 238
b 308 37 68 76 285 298 77 81 279 85 120 124 199 238 65 69 104 282
b 309 77 81 279 85 111 120 124 199 238 65 69 104 282 109 105 225 269
b 310 85 111 120 124 199 238 65 69 104 282 109 105 113 117 121 188 225 269
b 311 65 69 104 282 109 97 105 113 117 121 128 136 188 225 269 270
b 312 153 141 142 145 172 212 109 113 117 121 125 129 133 139 140 188 225 251 252
b 313 109 97 105 113 117 121 125 128 129 133 136 139 140 188 225 251 252 269 270
1 2
2 3
3 4
4 213
213 256
256 257
257 258
258 296
296 297
297 312
312 295
295 294
312 313
313 300
294 289
313 311
311 310
310 309
309 308
308 307
307 306
307 302
306 299
306 305
305 304
304 303
303 301
305 298
298 288
297 290
303 284
310 283
308 291
288 287
298 272
301 293
287 286
272 271
293 292
289 274
274 273
309 279
290 285
284 282
283 277
291 255
286 248
292 281
273 241
279 253
301 259
300 268
255 254
241 240
311 262
296 267
262 261
267 266
266 265
302 280
299 278
304 276
271 238
292 252
248 247
281 251
253 249
268 223
254 225
240 228
300 239
261 226
265 264
238 237
251 250
228 227
264 263
302 275
294 270
256 216
277 269
259 214
280 246
278 260
252 235
249 245
223 222
225 224
239 236
226 221
237 234
288 243
284 219
283 220
286 137
271 230
285 232
282 233
281 144
259 217
289 218
276 229
247 212
250 142
227 209
227 196
263 211
263 183
275 242
216 215
214 210
222 208
224 207
236 231
221 193
137 136
144 143
142 141
196 195
193 192
136 135
141 140
195 194
135 134
140 139
139 138
299 244
138 124
272 191
285 203
282 188
282 127
277 201
248 133
240 184
267 205
280 204
278 200
247 128
223 202
225 197
270 185
269 199
246 190
260 206
235 186
245 198
234 131
209 187
211 120
183 182
215 129
210 132
143 117
192 125
194 126
134 122
124 123
213 119
190 189
131 130
120 118
117 107
122 121
119 110
110 109
109 108
108 106
106 79
106 68
79 78
78 77
77 44
44 43
43 42
234 50
290 152
290 168
295 171
244 149
291 157
291 177
287 159
257 165
293 158
275 93
273 167
191 102
230 150
277 153
255 178
253 82
268 147
258 173
261 146
265 175
278 180
276 156
251 155
226 83
264 112
237 170
250 181
250 154
246 164
235 151
245 160
243 174
219 166
220 74
220 162
74 73
73 71
232 148
233 179
217 161
218 169
229 172
212 176
242 145
208 56
208 65
65 64
64 55
207 98
207 100
100 99
99 97
143 103
192 116
134 48
139 69
203 57
188 101
127 104
201 80
133 41
184 72
205 13
204 84
200 92
128 40
202 96
118 111
197 89
185 90
199 76
206 91
186 49
198 54
187 75
182 115
129 114
114 113
132 47
125 81
123 46
46 45
45 14
189 88
88 87
87 85
130 86
86 53
53 52
52 51
118 70
70 67
67 66
107 105
105 39
39 38
38 37
121 95
95 94
94 63
63 62
62 61
126 60
231 163
60 59
59 58
213 21
42 9
116 32
66 7
42 8
14 12
115 25
51 11
37 6
113 20
124 15
292 31
282 26
248 29
238 24
264 23
227 18
270 22
218 19
229 28
210 33
210 35
193 30
136 27
141 36
126 16
14 10
107 34
61 5
108 17
END

EOF
